200 73
3 93
3 101
4 42
4 66
6 26
9 39
11 188
12 149
13 65
13 169
18 32
18 165
20 34
23 159
26 77
27 62
27 67
28 82
32 116
33 40
33 62
35 65
36 76
36 104
37 112
40 101
42 132
42 163
43 185
44 53
45 122
47 57
48 151
49 78
50 83
50 91
57 190
58 194
60 143
63 135
64 102
70 139
71 94
72 137
73 198
77 78
79 108
80 117
81 181
83 198
84 95
86 141
89 95
93 97
93 199
96 174
98 165
101 194
104 121
114 127
118 122
124 126
125 177
128 131
130 141
138 153
146 176
151 184
155 164
159 176
163 177
180 191
181 186
